sat

(objectives
 ((bvadd PriceProv10 (bvadd PriceProv9 (bvadd PriceProv8 (bvadd PriceProv7 (bvadd PriceProv6 (bvadd PriceProv5 (bvadd PriceProv4 (bvadd PriceProv3 (bvadd PriceProv1 PriceProv2))))))))) (_ bv1584 32))
)
;; statistics
(
 :cnf-variables 5897
 :cnf-literals 29874
 :cnf-clauses 12519
 :sat-checks 13
 :sat-restarts 74
 :sat-decisions 557302
 :sat-random-decisions 313
 :sat-propagations 1328170761
 :sat-theory-propagations 0
 :sat-watched-clauses-visited 2300694226
 :sat-binary-watched-clauses-visited 913528047
 :sat-conflicts 276442
 :sat-theory-conflicts 0
 :theory-necessary-interface-equalities 0
 :theory-extra-interface-equalities 0
 :euf-total-calls 567612
 :euf-complete-calls 18
 :euf-conflicts 0
 :euf-implications 0
 :euf-explanations 0
 :euf-egraph-nodes-created 62056
 :euf-egraph-nodes-deleted 54168
 :euf-num-asserted-equalities 26058137
 :euf-num-asserted-inequalities 20544921
 :euf-num-merges 43309956
 :euf-num-merges-undone 43309956
 :euf-num-atoms-retold 12768
 :la-total-calls 567612
 :la-complete-calls 18
 :la-conflicts 0
 :la-implications 0
 :la-explanations 0
 :la-num-equalities-split 0
 :la-num-tableau-rows 0
 :la-num-tableau-variables 0
 :bv-total-calls 567612
 :bv-complete-calls 18
 :bv-conflicts 0
 :bv-implications 0
 :bv-explanations 0
 :fp-total-calls 567612
 :fp-complete-calls 18
 :fp-conflicts 0
 :fp-implications 0
 :fp-explanations 0
 :arr-total-calls 567612
 :arr-complete-calls 18
 :arr-conflicts 0
 :arr-implications 0
 :arr-explanations 0
 :arr-write-lemmas-added 0
 :arr-row-lemmas-added 0
 :arr-ext-lemmas-added 0
 :arr-const-lemmas-added 0
 :na-total-calls 567612
 :na-complete-calls 18
 :na-conflicts 0
 :na-implications 0
 :na-explanations 0
 :na-num_nonlinear_multiplications 0
 :na-num_axiom_checks 0
 :na-num_zero_lemmas 0
 :na-num_sign_lemmas 0
 :na-num_neutral_lemmas 0
 :na-num_proportionality_lemmas 0
 :na-num_bound_lemmas 0
 :na-num_tangent_lemmas 0
 :na-num_monotonicity_lemmas 0
 :na-num_sat_checks 0
 :na-axiom_check_time 0.000
 :na-sat_check_time 0.000
 :time-seconds 309.401
 :memory-mb 378.583
)
